JulietBench/Juliet_Based_Patch_Bench/linux/CWE-189-Numeric-Errors/CVE_2010_2959_5b75c4973ce779520b9d1e392483207d6f842cde/cve1/Resultbcm_tx_setup_Snippet_patch2NEQ.smt2
; benchmark generated from python API
(set-info :status unknown)
(declare-fun R () (_ BitVec 32))
(declare-fun rdi () (_ BitVec 64))
(assert
 (let (($x54 (and (distinct (_ bv0 32) R) true)))
 (let (($x49 (= (_ bv4294967274 32) R)))
 (let ((?x6 ((_ extract 31 0) rdi)))
 (let (($x10 (= (_ bv0 32) ?x6)))
 (let (($x50 (and $x10 $x49)))
 (let (($x45 (= (_ bv0 32) R)))
 (let (($x36 (and (distinct (_ bv0 32) ?x6) true)))
 (let (($x47 (and $x36 $x45)))
 (let (($x51 (or $x47 $x50)))
 (let (($x53 (not $x51)))
 (let (($x55 (and $x53 $x54)))
 (let (($x52 (and $x51 $x45)))
 (let (($x56 (or $x52 $x55)))
 (not $x56)))))))))))))))
(check-sat)
